c clasp version 2.1.1
c Reading from p36.cnf
c Solving...
s SATISFIABLE

c Models        : 1+    
c Time          : 1.720s (Solving: 0.30s 1st Model: 0.29s Unsat: 0.00s)
c CPU Time      : 1.710s
c Choices       : 11729
c Conflicts     : 764
c Restarts      : 2      (Average: 382.00 Last: 112)

c Variables     : 221565 (Eliminated: 69166 Frozen:    0)
c Constraints   : 260972 (Binary: 64.2% Ternary: 34.7% Other:  1.1%)
c Lemmas        : 764    (Binary:  0.9% Ternary:  1.7% Other: 97.4%)
c   Conflict    : 764    (Average Length: 36.1) 
c   Loop        : 0      (Average Length: 0.0) 
c   Other       : 0      (Average Length: 0.0)
c   Deleted     : 0     
